c "random instance"
p edges 150 1131
e 1 16
e 1 29
e 1 34
e 1 40
e 1 55
e 1 78
e 1 83
e 1 85
e 1 91
e 1 92
e 1 98
e 1 102
e 1 105
e 1 110
e 1 111
e 1 150
e 2 9
e 2 11
e 2 17
e 2 18
e 2 37
e 2 44
e 2 50
e 2 68
e 2 81
e 2 103
e 2 104
e 2 111
e 2 113
e 2 139
e 3 12
e 3 23
e 3 25
e 3 38
e 3 55
e 3 88
e 3 123
e 3 138
e 3 145
e 4 7
e 4 13
e 4 67
e 4 73
e 4 76
e 4 80
e 4 81
e 4 83
e 4 85
e 4 91
e 4 97
e 4 103
e 4 112
e 4 116
e 4 133
e 4 137
e 4 144
e 4 146
e 5 10
e 5 13
e 5 22
e 5 35
e 5 40
e 5 42
e 5 47
e 5 54
e 5 88
e 5 110
e 5 121
e 5 122
e 5 145
e 6 12
e 6 13
e 6 24
e 6 33
e 6 49
e 6 83
e 6 84
e 6 98
e 6 99
e 6 101
e 6 126
e 6 127
e 6 131
e 6 139
e 7 15
e 7 22
e 7 48
e 7 68
e 7 69
e 7 76
e 7 89
e 7 108
e 7 120
e 7 134
e 8 20
e 8 22
e 8 45
e 8 47
e 8 49
e 8 50
e 8 59
e 8 60
e 8 61
e 8 78
e 8 89
e 8 95
e 8 96
e 8 98
e 8 103
e 8 110
e 8 121
e 8 128
e 8 137
e 9 44
e 9 45
e 9 109
e 9 113
e 9 120
e 9 150
e 10 11
e 10 14
e 10 16
e 10 22
e 10 29
e 10 46
e 10 48
e 10 57
e 10 60
e 10 64
e 10 66
e 10 69
e 10 77
e 10 83
e 10 86
e 10 89
e 10 91
e 10 100
e 10 105
e 10 106
e 11 30
e 11 55
e 11 61
e 11 70
e 11 75
e 11 86
e 11 101
e 11 105
e 11 130
e 11 139
e 11 141
e 12 18
e 12 27
e 12 28
e 12 33
e 12 35
e 12 42
e 12 49
e 12 53
e 12 56
e 12 67
e 12 72
e 12 73
e 12 77
e 12 83
e 12 87
e 12 113
e 12 119
e 12 130
e 12 135
e 13 29
e 13 30
e 13 32
e 13 52
e 13 61
e 13 82
e 13 83
e 13 84
e 13 110
e 13 120
e 13 124
e 13 148
e 14 15
e 14 16
e 14 34
e 14 35
e 14 70
e 14 88
e 14 101
e 14 133
e 14 147
e 15 16
e 15 17
e 15 65
e 15 71
e 15 77
e 15 81
e 15 83
e 15 89
e 15 94
e 15 102
e 15 115
e 15 131
e 15 137
e 15 138
e 15 139
e 15 147
e 15 150
e 16 18
e 16 26
e 16 28
e 16 34
e 16 55
e 16 81
e 16 117
e 16 141
e 16 150
e 17 37
e 17 39
e 17 40
e 17 50
e 17 61
e 17 75
e 17 84
e 17 104
e 17 114
e 17 122
e 17 125
e 17 148
e 18 43
e 18 62
e 18 78
e 18 81
e 18 91
e 18 95
e 18 107
e 18 112
e 18 118
e 18 134
e 18 135
e 18 138
e 18 145
e 19 23
e 19 36
e 19 64
e 19 99
e 19 100
e 19 117
e 19 134
e 19 149
e 20 46
e 20 61
e 20 76
e 20 80
e 20 82
e 20 84
e 20 95
e 20 104
e 20 107
e 20 110
e 20 113
e 20 114
e 20 119
e 20 122
e 20 130
e 21 41
e 21 49
e 21 63
e 21 64
e 21 65
e 21 67
e 21 74
e 21 98
e 21 106
e 21 111
e 21 115
e 21 120
e 21 131
e 21 133
e 21 145
e 21 150
e 22 30
e 22 33
e 22 44
e 22 51
e 22 63
e 22 64
e 22 66
e 22 80
e 22 86
e 22 106
e 22 128
e 22 131
e 22 141
e 23 25
e 23 26
e 23 33
e 23 45
e 23 48
e 23 49
e 23 50
e 23 51
e 23 73
e 23 76
e 23 84
e 23 101
e 23 102
e 23 112
e 23 113
e 23 120
e 23 124
e 23 128
e 23 136
e 24 26
e 24 28
e 24 30
e 24 47
e 24 54
e 24 63
e 24 84
e 24 91
e 24 99
e 24 102
e 24 106
e 24 108
e 24 111
e 24 121
e 24 129
e 24 132
e 24 136
e 24 145
e 25 28
e 25 35
e 25 40
e 25 43
e 25 49
e 25 73
e 25 79
e 25 82
e 25 94
e 25 107
e 25 112
e 25 139
e 25 140
e 26 51
e 26 62
e 26 63
e 26 65
e 26 78
e 26 86
e 26 94
e 26 100
e 26 111
e 26 116
e 26 118
e 26 127
e 27 29
e 27 34
e 27 35
e 27 36
e 27 41
e 27 52
e 27 58
e 27 69
e 27 74
e 27 82
e 27 85
e 27 87
e 27 92
e 27 99
e 27 101
e 27 112
e 27 135
e 27 136
e 27 142
e 27 144
e 28 32
e 28 60
e 28 61
e 28 63
e 28 81
e 28 90
e 28 107
e 28 109
e 28 126
e 28 129
e 28 131
e 28 146
e 29 41
e 29 46
e 29 74
e 29 88
e 29 112
e 29 113
e 29 134
e 30 31
e 30 32
e 30 33
e 30 48
e 30 56
e 30 64
e 30 65
e 30 67
e 30 71
e 30 83
e 30 104
e 30 109
e 30 115
e 30 120
e 30 129
e 30 141
e 31 39
e 31 55
e 31 61
e 31 63
e 31 70
e 31 75
e 31 76
e 31 82
e 31 83
e 31 96
e 31 108
e 31 109
e 31 112
e 31 116
e 31 135
e 31 136
e 31 142
e 31 144
e 31 148
e 32 42
e 32 44
e 32 49
e 32 76
e 32 82
e 32 83
e 32 90
e 32 104
e 32 107
e 32 120
e 32 124
e 32 140
e 33 34
e 33 44
e 33 46
e 33 58
e 33 62
e 33 68
e 33 81
e 33 113
e 33 124
e 33 139
e 34 46
e 34 85
e 34 102
e 34 111
e 34 119
e 34 136
e 34 137
e 34 138
e 34 141
e 35 44
e 35 49
e 35 53
e 35 69
e 35 80
e 35 133
e 35 136
e 35 142
e 35 143
e 35 147
e 36 37
e 36 46
e 36 48
e 36 57
e 36 64
e 36 78
e 36 131
e 36 141
e 37 57
e 37 62
e 37 72
e 37 102
e 37 106
e 37 115
e 37 121
e 38 43
e 38 51
e 38 62
e 38 64
e 38 65
e 38 89
e 38 97
e 38 125
e 38 134
e 39 47
e 39 67
e 39 80
e 39 82
e 39 83
e 39 89
e 39 108
e 39 120
e 39 144
e 39 147
e 39 148
e 40 41
e 40 58
e 40 62
e 40 75
e 40 88
e 40 89
e 40 91
e 40 98
e 40 107
e 40 112
e 40 119
e 40 122
e 40 123
e 40 134
e 40 141
e 40 143
e 41 54
e 41 55
e 41 58
e 41 78
e 41 86
e 41 105
e 41 110
e 41 121
e 41 123
e 41 124
e 41 133
e 41 136
e 41 140
e 41 147
e 41 150
e 42 43
e 42 45
e 42 48
e 42 52
e 42 53
e 42 65
e 42 75
e 42 79
e 42 93
e 42 127
e 42 145
e 43 67
e 43 73
e 43 75
e 43 76
e 43 92
e 43 144
e 44 52
e 44 60
e 44 71
e 44 85
e 44 92
e 44 103
e 44 144
e 45 58
e 45 69
e 45 73
e 45 76
e 45 90
e 45 96
e 45 110
e 45 135
e 46 73
e 46 82
e 46 92
e 46 96
e 46 121
e 46 126
e 46 130
e 46 138
e 46 148
e 47 49
e 47 59
e 47 60
e 47 84
e 47 95
e 47 96
e 47 98
e 47 107
e 47 119
e 47 128
e 47 134
e 47 146
e 47 149
e 48 53
e 48 58
e 48 62
e 48 66
e 48 78
e 48 97
e 48 100
e 48 105
e 48 126
e 48 136
e 48 148
e 49 75
e 49 98
e 49 99
e 49 105
e 49 122
e 49 125
e 49 149
e 50 54
e 50 63
e 50 67
e 50 95
e 50 105
e 50 112
e 50 113
e 50 118
e 50 143
e 51 75
e 51 76
e 51 113
e 51 120
e 51 123
e 51 124
e 51 126
e 51 128
e 51 138
e 51 139
e 52 55
e 52 76
e 52 100
e 52 107
e 52 113
e 52 121
e 52 127
e 52 129
e 52 131
e 53 55
e 53 66
e 53 67
e 53 71
e 53 73
e 53 78
e 53 94
e 53 98
e 53 99
e 53 102
e 53 118
e 53 119
e 53 139
e 53 148
e 54 58
e 54 77
e 54 80
e 54 85
e 54 93
e 54 100
e 54 126
e 54 131
e 54 138
e 55 57
e 55 76
e 55 80
e 55 84
e 55 95
e 55 99
e 55 100
e 55 128
e 55 130
e 55 144
e 55 146
e 55 149
e 56 66
e 56 73
e 56 83
e 56 105
e 56 146
e 56 147
e 57 93
e 57 115
e 57 134
e 57 145
e 58 87
e 58 129
e 58 135
e 58 140
e 58 149
e 59 70
e 59 77
e 59 80
e 59 105
e 59 136
e 59 146
e 60 62
e 60 76
e 60 84
e 60 97
e 60 99
e 60 104
e 60 105
e 60 114
e 60 124
e 60 126
e 60 130
e 60 134
e 61 65
e 61 79
e 61 81
e 61 102
e 61 106
e 61 114
e 61 117
e 61 121
e 61 127
e 61 137
e 61 138
e 61 144
e 62 63
e 62 67
e 62 70
e 62 78
e 62 86
e 62 93
e 62 117
e 62 122
e 62 130
e 62 139
e 62 140
e 62 146
e 63 71
e 63 73
e 63 77
e 63 80
e 63 99
e 63 120
e 63 124
e 63 134
e 63 143
e 63 145
e 63 148
e 64 77
e 64 85
e 64 103
e 64 123
e 64 134
e 64 138
e 64 139
e 64 146
e 64 147
e 65 72
e 65 83
e 65 99
e 65 131
e 65 132
e 66 69
e 66 72
e 66 86
e 66 90
e 66 109
e 66 112
e 66 117
e 66 121
e 66 137
e 67 71
e 67 98
e 67 99
e 67 115
e 67 120
e 67 123
e 67 130
e 68 69
e 68 85
e 68 86
e 68 90
e 68 92
e 68 99
e 68 105
e 68 142
e 68 149
e 69 78
e 69 85
e 69 89
e 69 99
e 69 111
e 69 114
e 69 115
e 69 117
e 69 121
e 69 140
e 69 145
e 70 71
e 70 85
e 70 86
e 70 87
e 70 107
e 70 118
e 70 137
e 71 77
e 71 78
e 71 92
e 71 98
e 71 100
e 71 105
e 71 110
e 71 117
e 72 74
e 72 75
e 72 78
e 72 83
e 72 87
e 72 92
e 72 101
e 72 125
e 72 128
e 72 130
e 72 131
e 72 140
e 72 146
e 73 83
e 73 89
e 73 107
e 73 113
e 73 117
e 73 125
e 73 139
e 73 147
e 73 149
e 74 75
e 74 78
e 74 99
e 74 108
e 74 147
e 74 150
e 75 80
e 75 90
e 75 94
e 75 115
e 75 122
e 76 84
e 76 99
e 76 108
e 76 115
e 76 121
e 76 132
e 76 135
e 76 140
e 77 86
e 77 92
e 77 95
e 77 102
e 77 108
e 77 116
e 77 120
e 78 79
e 78 81
e 78 82
e 78 93
e 78 115
e 78 118
e 78 126
e 78 127
e 78 129
e 78 136
e 78 143
e 78 144
e 78 150
e 79 80
e 79 82
e 79 84
e 79 90
e 79 99
e 79 110
e 79 112
e 79 118
e 79 125
e 79 127
e 79 133
e 79 149
e 79 150
e 80 85
e 80 90
e 80 92
e 80 120
e 80 124
e 80 125
e 80 144
e 80 145
e 81 82
e 81 88
e 81 91
e 81 100
e 81 104
e 81 105
e 81 108
e 81 110
e 81 111
e 81 126
e 81 130
e 81 132
e 81 136
e 81 144
e 82 88
e 82 90
e 82 99
e 82 101
e 82 102
e 82 107
e 82 117
e 82 118
e 82 120
e 82 130
e 82 131
e 82 142
e 83 91
e 83 103
e 83 138
e 83 140
e 83 144
e 83 148
e 84 91
e 84 96
e 84 102
e 84 104
e 84 110
e 84 114
e 84 136
e 84 141
e 85 99
e 85 106
e 85 111
e 85 121
e 85 126
e 85 128
e 85 147
e 86 95
e 86 115
e 86 120
e 86 138
e 87 88
e 87 90
e 87 92
e 87 99
e 87 101
e 87 112
e 87 125
e 87 146
e 88 106
e 88 139
e 88 145
e 89 111
e 89 139
e 90 95
e 90 102
e 90 120
e 90 129
e 90 135
e 90 140
e 90 148
e 91 103
e 91 132
e 91 140
e 91 142
e 92 97
e 92 100
e 92 105
e 92 116
e 92 137
e 92 143
e 92 147
e 93 133
e 93 144
e 93 145
e 93 147
e 93 150
e 94 108
e 94 114
e 94 117
e 94 119
e 94 125
e 94 132
e 94 142
e 95 105
e 95 117
e 95 130
e 95 131
e 95 132
e 95 142
e 96 113
e 96 118
e 97 111
e 97 115
e 98 105
e 98 107
e 98 123
e 98 126
e 98 129
e 98 146
e 99 106
e 99 112
e 99 124
e 99 127
e 99 146
e 99 147
e 100 105
e 100 130
e 100 138
e 100 139
e 100 145
e 100 150
e 101 108
e 101 126
e 101 134
e 101 147
e 101 150
e 102 105
e 102 113
e 102 114
e 102 122
e 102 128
e 102 143
e 102 145
e 103 105
e 103 108
e 103 110
e 103 116
e 103 120
e 103 126
e 103 142
e 103 144
e 104 124
e 104 133
e 105 114
e 105 117
e 105 124
e 105 143
e 106 130
e 106 140
e 107 110
e 107 124
e 107 126
e 107 138
e 107 140
e 108 125
e 108 130
e 108 137
e 108 145
e 109 136
e 109 139
e 110 119
e 110 141
e 110 142
e 110 143
e 111 113
e 111 133
e 111 134
e 111 147
e 112 120
e 112 138
e 112 143
e 113 116
e 113 124
e 113 128
e 113 132
e 113 143
e 113 144
e 113 145
e 113 148
e 114 118
e 114 149
e 115 123
e 115 150
e 116 119
e 116 127
e 116 133
e 116 146
e 116 148
e 117 132
e 117 141
e 117 144
e 117 148
e 118 128
e 118 132
e 118 133
e 118 134
e 118 137
e 118 150
e 120 139
e 120 143
e 120 145
e 120 146
e 121 136
e 121 139
e 121 143
e 122 124
e 122 146
e 123 130
e 123 146
e 124 140
e 124 143
e 124 148
e 125 140
e 127 131
e 127 133
e 127 134
e 128 131
e 128 141
e 129 134
e 129 149
e 130 133
e 130 149
e 131 141
e 132 146
e 133 136
e 133 138
e 134 135
e 135 136
e 135 140
e 136 139
e 136 142
e 136 144
e 137 143
e 137 147
e 138 145
e 139 149
e 140 141
e 140 146
e 141 148
e 141 149
e 142 145
e 142 148
e 143 147
e 144 150
